22
14 17
14 15
14 5
14 6
14 1
14 12
14 2
14 3
14 8
14 4
14 20
17 10
17 1
17 20
17 18
17 3
17 5
17 6
17 19
17 15
17 11
10 18
10 4
10 1
10 19
10 3
10 16
10 11
10 21
10 12
10 7
0 20
0 7
0 1
0 11
0 18
0 8
0 15
0 19
0 6
0 9
0 16
20 13
20 18
20 21
20 6
20 11
20 12
20 4
20 19
7 12
7 19
7 8
7 18
7 2
7 11
7 13
7 1
7 4
12 13
12 19
12 9
12 5
12 21
12 6
12 11
1 16
1 3
1 9
1 18
1 2
1 8
2 5
2 6
2 11
2 13
2 4
2 9
2 16
2 21
5 8
5 11
5 3
5 13
5 9
5 6
5 15
8 15
8 9
8 13
8 16
8 11
8 3
4 19
4 16
4 15
4 21
4 13
4 3
19 16
19 9
19 15
19 11
9 21
9 16
9 18
9 3
21 18
21 3
21 15
21 16
21 13
18 3
18 6
18 13
13 6
13 15
15 11
15 16
6 16
6 3
